Problem:    
Rows:       113
Columns:    45 (34 integer, 34 binary)
Non-zeros:  356
Status:     INTEGER OPTIMAL
Objective:  value = 6.633028 (MINimum)

   No.   Row name        Activity     Lower bound   Upper bound
------ ------------    ------------- ------------- -------------
     1 r.5                   6.63303             0               
     2 r.6                   6.63303      -995.193               
     3 r.7                   1006.63             0               
     4 r.8                  -993.367      -996.175               
     5 r.9                   1006.63             0               
     6 r.10                 -996.666       -998.51               
     7 r.11                  6.63303             0               
     8 r.12                  6.63303      -997.677               
     9 r.13                  1006.63             0               
    10 r.14                 -995.764      -999.098               
    11 r.15                  6.63303             0               
    12 r.16                  6.63303      -998.828               
    13 r.17                  1006.63             0               
    14 r.18                 -993.367      -997.602               
    15 r.19                  6.63303             0               
    16 r.20                  6.63303      -997.573               
    17 r.21                  1006.63             0               
    18 r.22                 -999.774      -999.774               
    19 r.23                  6.63303             0               
    20 r.24                 -998.827      -998.827               
    21 r.25                        1             1             = 
    22 r.26                        1             1             = 
    23 r.27                        1             1             = 
    24 r.28                        1             1             = 
    25 r.29                        1             1             = 
    26 r.30                     1001             2               
    27 r.31                    -1001         -1001               
    28 r.32                   1996.7       -998.51               
    29 r.33                     1001             2               
    30 r.34                    -1001         -1001               
    31 r.35                     2000      -997.677               
    32 r.36                     1001             2               
    33 r.37                    -1001         -1001               
    34 r.38                   1997.6      -999.098               
    35 r.39                     1001             2               
    36 r.40                    -1001         -1001               
    37 r.41                     2000      -998.828               
    38 r.42                     1001             2               
    39 r.43                    -1001         -1001               
    40 r.44                     2000      -997.602               
    41 r.45                     1001             2               
    42 r.46                    -1001         -1001               
    43 r.47                     2000      -997.573               
    44 r.48                   4.7896      -995.193               
    45 r.49                  -995.21      -996.175               
    46 r.50                   1006.8      -995.193               
    47 r.51                  6.80392      -996.175               
    48 r.52                     1001             2               
    49 r.53                    -1001         -1001               
    50 r.54                   2003.3        4.8073               
    51 r.55                     1001             2               
    52 r.56                    -1001         -1001               
    53 r.57                     2000        3.8253               
    54 r.58                        2             2               
    55 r.59                       -2         -1001               
    56 r.60                 -999.098      -999.098               
    57 r.61                     1000             2               
    58 r.62                    -1000         -1001               
    59 r.63                     2000      -998.828               
    60 r.64                        2             2               
    61 r.65                       -2         -1001               
    62 r.66                 -996.701      -997.602               
    63 r.67                     1000             2               
    64 r.68                    -1000         -1001               
    65 r.69                     2000      -997.573               
    66 r.70                  -998.51       -998.51               
    67 r.71                   4.7896      -997.677               
    68 r.72                  3.50482       -998.51               
    69 r.73                   1006.8      -997.677               
    70 r.74                     1001             2               
    71 r.75                    -1001         -1001               
    72 r.76                   2002.4        4.8073               
    73 r.77                     1001             2               
    74 r.78                    -1001         -1001               
    75 r.79                     2000        3.8253               
    76 r.80                        2             2               
    77 r.81                       -2         -1001               
    78 r.82                  999.098        1.4905               
    79 r.83                     1000             2               
    80 r.84                    -1000         -1001               
    81 r.85                     2000        2.3228               
    82 r.86                        2             2               
    83 r.87                       -2         -1001               
    84 r.88                 -997.603      -997.602               
    85 r.89                     1000             2               
    86 r.90                    -1000         -1001               
    87 r.91                     2000      -997.573               
    88 r.92                 -997.608      -999.098               
    89 r.93                   4.7896      -998.828               
    90 r.94                  4.40642      -999.098               
    91 r.95                   1006.8      -998.828               
    92 r.96                     1001             2               
    93 r.97                    -1001         -1001               
    94 r.98                     2000        4.8073               
    95 r.99                     1001             2               
    96 r.100                   -1001         -1001               
    97 r.101                    2000        3.8253               
    98 r.102                       2             2               
    99 r.103                      -2         -1001               
   100 r.104                 996.701        1.4905               
   101 r.105                    1000             2               
   102 r.106                   -1000         -1001               
   103 r.107                    2000        2.3228               
   104 r.108                       2             2               
   105 r.109                      -2         -1001               
   106 r.110                 997.603        0.9016               
   107 r.111                    1000             2               
   108 r.112                   -1000         -1001               
   109 r.113                    2000         1.172               
   110 r.114                 -995.21      -997.602               
   111 r.115                  4.7896      -997.573               
   112 r.116                 6.80392      -997.602               
   113 r.117                  1006.8      -997.573               

   No. Column name       Activity     Lower bound   Upper bound
------ ------------    ------------- ------------- -------------
     1 tt                    6.63303             0               
     2 s_1_1        *              0             0             1 
     3 t_1_1                       0             0               
     4 s_2_1        *              1             0             1 
     5 t_2_1                       0             0               
     6 s_1_2        *              1             0             1 
     7 t_1_2                  3.2991             0               
     8 s_2_2        *              0             0             1 
     9 t_2_2                       0             0               
    10 s_1_3        *              1             0             1 
    11 t_1_3                  2.3975             0               
    12 s_2_3        *              0             0             1 
    13 t_2_3                       0             0               
    14 s_1_4        *              1             0             1 
    15 t_1_4                       0             0               
    16 s_2_4        *              0             0             1 
    17 t_2_4                       0             0               
    18 s_1_5        *              1             0             1 
    19 t_1_5                  4.7896             0               
    20 s_2_5        *              0             0             1 
    21 t_2_5                  1006.8             0               
    22 r_1_1_2      *              1             0             1 
    23 u_1_1_2      *              0             0             1 
    24 r_2_1_2      *              1             0             1 
    25 u_2_1_2      *              0             0             1 
    26 r_1_1_3      *              1             0             1 
    27 u_1_1_3      *              0             0             1 
    28 r_2_1_3      *              1             0             1 
    29 u_2_1_3      *              0             0             1 
    30 r_1_1_4      *              1             0             1 
    31 u_1_1_4      *              0             0             1 
    32 r_2_1_4      *              1             0             1 
    33 u_2_1_4      *              0             0             1 
    34 r_1_2_3      *              0             0             1 
    35 u_1_2_3      *              1             0             1 
    36 r_2_2_3      *              1             0             1 
    37 u_2_2_3      *              0             0             1 
    38 r_1_2_4      *              0             0             1 
    39 u_1_2_4      *              1             0             1 
    40 r_2_2_4      *              1             0             1 
    41 u_2_2_4      *              0             0             1 
    42 r_1_3_4      *              0             0             1 
    43 u_1_3_4      *              1             0             1 
    44 r_2_3_4      *              1             0             1 
    45 u_2_3_4      *              0             0             1 

Integer feasibility conditions:

KKT.PE: max.abs.err = 1.14e-13 on row 18
        max.rel.err = 5.61e-17 on row 18
        High quality

KKT.PB: max.abs.err = 1.14e-13 on row 84
        max.rel.err = 1.14e-16 on row 84
        High quality

End of output
